2002.87
0 17 18 19 16 13 15 14 11 12 8 9 10 4 6 7 5 2 3 34 32 1 26 21 27 28 29 30 31 23 22 24 25 20 0
0 65 33 63 79 35 39 43 44 42 40 38 45 41 37 36 57 103 56 52 58 60 59 51 62 54 53 61 48 49 50 64 47 0
0 85 86 84 87 88 89 90 80 81 69 67 118 71 78 74 76 77 72 82 0
0 102 99 101 98 97 93 96 100 95 104 94 92 83 91 0
0 109 108 107 106 115 116 117 113 110 112 111 133 46 73 0
0 123 129 127 128 126 125 122 124 121 120 114 119 55 105 75 134 0
0 130 131 132 70 68 66 0
